50

91 5 151
88 15 215
88 24 154
87 21 238
87 10 165
86 25 273
86 4 148
85 23 225
85 10 238
84 6 253
83 6 214
80 7 134
79 16 256
78 12 278
77 7 181
70 8 272
70 1 191
68 21 150
67 1 217
66 9 176
59 18 296
52 5 295
49 7 136
48 6 173
47 4 298
47 13 242
44 1 288
42 8 198
38 7 207
37 3 274
37 4 270
34 5 300
34 6 262
33 2 152
31 2 160
29 3 196
27 2 257
24 6 153
21 2 134
17 2 265
16 3 212
16 4 163
15 5 170
14 5 299
8 1 247
6 2 282
5 2 278
4 1 194
2 1 278
2 1 269
